(declare-const |cont'| Int)
(declare-const tr1 Int)
(declare-const cont Int)
(declare-const tr Int)
(declare-const j Int)
(declare-const term_to_project_onto0 Real)
(declare-const tr0 Int)
(declare-const term_to_project_onto Real)
(declare-const |j'| Int)
(declare-const tr2 Int)
(declare-const phi_cont Int)
(assert (and (<= (- cont) 0) (<= (- j) 0) (<= (+ j -1) 0)
               (or (and (or (<= (+ (- tr0) tr 1) 0) (<= (+ tr0 (- tr) 1) 0))
                          (= (+ (- phi_cont) cont) 0))
                     (and (= (+ (- tr2) tr1) 0) (= (+ (- phi_cont) cont 1) 0)))
               (= (+ |cont'| (- phi_cont)) 0) (= (+ |j'| (- j) -1) 0)
               (= term_to_project_onto0 (+ |j'| (- j)))
               (= term_to_project_onto (+ |cont'| (- cont)))))
(check-sat)
